% seed = 3901620

mint = 49;
% maxt = 95;

nActs = 22;
dur = [0,1,9,10,2,8,8,1,1,3,6,7,10,1,7,2,1,5,1,8,4,0];

nSkills = 4;
sreq = [| 0,0,0,0,
	| 1,1,2,2,
	| 1,3,2,1,
	| 1,2,2,3,
	| 1,1,1,3,
	| 2,3,1,3,
	| 1,3,3,3,
	| 1,3,3,1,
	| 1,2,1,3,
	| 1,3,1,1,
	| 2,2,1,1,
	| 2,2,2,1,
	| 3,2,3,3,
	| 1,1,3,2,
	| 3,2,3,3,
	| 1,1,1,3,
	| 2,3,3,3,
	| 2,1,2,1,
	| 2,3,2,3,
	| 2,3,3,3,
	| 2,1,1,3,
	| 0,0,0,0, |];

nResources = 20;
mastery = [| false,false,true,false,
	| true,true,false,false,
	| true,true,false,false,
	| true,false,true,false,
	| false,true,false,true,
	| false,false,true,false,
	| false,true,false,true,
	| true,true,true,false,
	| false,false,true,false,
	| true,false,false,true,
	| false,false,true,true,
	| false,false,true,false,
	| false,false,true,false,
	| false,true,true,true,
	| false,true,false,false,
	| false,false,true,true,
	| false,true,true,true,
	| false,true,false,true,
	| true,true,true,false,
	| true,true,false,false, |];

nPrecs = 31;
pred = [1,1,1,2,3,3,3,4,4,5,6,6,6,7,8,8,9,10,10,11,12,13,13,14,15,16,17,18,19,20,21];
succ = [2,3,4,10,17,6,15,5,8,20,12,7,16,13,9,21,15,11,14,21,18,19,14,18,20,18,21,20,22,22,22];

nUnrels = 127;
unpred = [2,2,2,2,2,2,2,2,2,2,2,2,2,3,3,3,3,3,3,4,4,4,4,4,4,4,4,4,4,4,5,5,5,5,5,5,5,5,5,5,5,5,5,5,5,6,6,6,6,6,6,6,7,7,7,7,7,7,7,7,7,8,8,8,8,8,8,8,8,8,9,9,9,9,9,9,9,9,9,9,10,10,10,10,10,10,11,11,11,11,11,11,11,11,11,12,12,12,12,12,12,12,13,13,13,13,14,14,14,14,14,15,15,15,15,15,16,16,16,17,17,17,18,18,19,19,20];
unsucc = [3,4,5,6,7,8,9,12,13,15,16,17,19,4,5,8,9,10,11,6,7,10,11,12,13,14,16,17,18,19,6,7,8,9,10,11,12,13,14,15,16,17,18,19,21,8,9,10,11,15,17,21,8,9,10,11,12,15,16,17,21,10,11,12,13,14,16,17,18,19,10,11,12,13,14,16,17,18,19,21,12,13,15,16,17,19,12,13,14,15,16,17,18,19,20,13,14,15,16,17,19,21,15,16,17,21,15,16,17,19,21,16,17,18,19,21,17,19,21,18,19,20,19,21,20,21,21];

USEFUL_RES = [{},
	{1,2,3,4,5,6,7,8,9,10,11,12,13,14,15,16,17,18,19,20},
	{1,2,3,4,5,6,7,8,9,10,11,12,13,14,15,16,17,18,19,20},
	{1,2,3,4,5,6,7,8,9,10,11,12,13,14,15,16,17,18,19,20},
	{1,2,3,4,5,6,7,8,9,10,11,12,13,14,15,16,17,18,19,20},
	{1,2,3,4,5,6,7,8,9,10,11,12,13,14,15,16,17,18,19,20},
	{1,2,3,4,5,6,7,8,9,10,11,12,13,14,15,16,17,18,19,20},
	{1,2,3,4,5,6,7,8,9,10,11,12,13,14,15,16,17,18,19,20},
	{1,2,3,4,5,6,7,8,9,10,11,12,13,14,15,16,17,18,19,20},
	{1,2,3,4,5,6,7,8,9,10,11,12,13,14,15,16,17,18,19,20},
	{1,2,3,4,5,6,7,8,9,10,11,12,13,14,15,16,17,18,19,20},
	{1,2,3,4,5,6,7,8,9,10,11,12,13,14,15,16,17,18,19,20},
	{1,2,3,4,5,6,7,8,9,10,11,12,13,14,15,16,17,18,19,20},
	{1,2,3,4,5,6,7,8,9,10,11,12,13,14,15,16,17,18,19,20},
	{1,2,3,4,5,6,7,8,9,10,11,12,13,14,15,16,17,18,19,20},
	{1,2,3,4,5,6,7,8,9,10,11,12,13,14,15,16,17,18,19,20},
	{1,2,3,4,5,6,7,8,9,10,11,12,13,14,15,16,17,18,19,20},
	{1,2,3,4,5,6,7,8,9,10,11,12,13,14,15,16,17,18,19,20},
	{1,2,3,4,5,6,7,8,9,10,11,12,13,14,15,16,17,18,19,20},
	{1,2,3,4,5,6,7,8,9,10,11,12,13,14,15,16,17,18,19,20},
	{1,2,3,4,5,6,7,8,9,10,11,12,13,14,15,16,17,18,19,20},
	{}];

POTENTIAL_ACT = [{2,3,4,5,6,7,8,9,10,11,12,13,14,15,16,17,18,19,20,21},
	{2,3,4,5,6,7,8,9,10,11,12,13,14,15,16,17,18,19,20,21},
	{2,3,4,5,6,7,8,9,10,11,12,13,14,15,16,17,18,19,20,21},
	{2,3,4,5,6,7,8,9,10,11,12,13,14,15,16,17,18,19,20,21},
	{2,3,4,5,6,7,8,9,10,11,12,13,14,15,16,17,18,19,20,21},
	{2,3,4,5,6,7,8,9,10,11,12,13,14,15,16,17,18,19,20,21},
	{2,3,4,5,6,7,8,9,10,11,12,13,14,15,16,17,18,19,20,21},
	{2,3,4,5,6,7,8,9,10,11,12,13,14,15,16,17,18,19,20,21},
	{2,3,4,5,6,7,8,9,10,11,12,13,14,15,16,17,18,19,20,21},
	{2,3,4,5,6,7,8,9,10,11,12,13,14,15,16,17,18,19,20,21},
	{2,3,4,5,6,7,8,9,10,11,12,13,14,15,16,17,18,19,20,21},
	{2,3,4,5,6,7,8,9,10,11,12,13,14,15,16,17,18,19,20,21},
	{2,3,4,5,6,7,8,9,10,11,12,13,14,15,16,17,18,19,20,21},
	{2,3,4,5,6,7,8,9,10,11,12,13,14,15,16,17,18,19,20,21},
	{2,3,4,5,6,7,8,9,10,11,12,13,14,15,16,17,18,19,20,21},
	{2,3,4,5,6,7,8,9,10,11,12,13,14,15,16,17,18,19,20,21},
	{2,3,4,5,6,7,8,9,10,11,12,13,14,15,16,17,18,19,20,21},
	{2,3,4,5,6,7,8,9,10,11,12,13,14,15,16,17,18,19,20,21},
	{2,3,4,5,6,7,8,9,10,11,12,13,14,15,16,17,18,19,20,21},
	{2,3,4,5,6,7,8,9,10,11,12,13,14,15,16,17,18,19,20,21}];
